8840
1 1 0 0 0 0 1 0 1 1 0 0 1 1 1 0 0 0 0 0 
12 6 13 14 0 12 6 13 1 1 12 8 13 6 0 6 0 13 14 14 14 9 9 8 8 8 13 12 13 13 6 6 6 6 6 6 6 0 6 1 1 12 13 13 9 14 9 0 0 6 1 13 1 13 13 9 12 14 6 14 13 13 6 9 6 12 0 0 8 0 9 13 6 6 0 13 6 6 6 13 